Test: battleship-16-16-unsat.cnf
Options: -no-inverting-opt -sym-usage-var-bump
WARNING: for repeatability, setting FPU to use double precision
============================[ Problem Statistics ]=============================
|                                                                             |
|  Number of symmetries:           17                                         |
|  Number of invertingSyms:         0                                         |
|  Number of variables:           256                                         |
|  Number of clauses:            2176                                         |
|  Parse time:                   0.00 s                                       |
|                                                                             |
============================[ Search Statistics ]==============================
| Conflicts |          ORIGINAL         |          LEARNT          | Progress |
|           |    Vars  Clauses Literals |    Limit  Clauses Lit/Cl |          |
===============================================================================
|       100 |     256     2176     7936 |      797      157    110 |  0.002 % |
|       250 |     256     2176     7936 |      877      317     84 |  0.002 % |
|       475 |     256     2176     7936 |      965      550     73 |  0.002 % |
|       812 |     256     2176     7936 |     1061      898     63 |  0.002 % |
|      1318 |     256     2176     7936 |     1168      837     56 |  0.002 % |
|      2077 |     256     2176     7936 |     1284     1004     58 |  0.002 % |
|      3216 |     256     2176     7936 |     1413      919     60 |  0.002 % |
|      4924 |     256     2176     7936 |     1554      722     53 |  0.002 % |
|      7486 |     256     2176     7936 |     1710     1174     64 |  0.002 % |
|     11330 |     256     2176     7936 |     1881      943     55 |  0.002 % |
|     17096 |     256     2176     7936 |     2069     1896     65 |  0.002 % |
|     25745 |     256     2176     7936 |     2276     2099     72 |  0.002 % |
|     38719 |     256     2176     7936 |     2504     1509     57 |  0.002 % |
|     58180 |     256     2176     7936 |     2754     1978     60 |  0.002 % |
|     87372 |     256     2176     7936 |     3029     2887     69 |  0.002 % |
|    131161 |     256     2176     7936 |     3332     2742     53 |  0.002 % |
|    196845 |     256     2176     7936 |     3666     2420     81 |  0.002 % |
|    295371 |     256     2176     7936 |     4032     3115     56 |  0.002 % |
|    443160 |     256     2176     7936 |     4436     2943     43 |  0.002 % |
|    664843 |     256     2176     7936 |     4879     4159     57 |  0.002 % |
|    997368 |     256     2176     7936 |     5367     4349     69 |  0.002 % |
===============================================================================
restarts              : 2810
conflicts             : 1438629        (24000 /sec)
symconflicts          : 4208           (70 /sec)
decisions             : 2134446        (0.00 % random) (35607 /sec)
propagations          : 39587292       (660407 /sec)
sympropagations       : 61137          (1020 /sec)
conflict literals     : 96661233       (7.55 % deleted)
literals     : 96661233       (7.55 % deleted)

HEURISTIC USAGES
random                : 0           
activity w/ lookahead : 0           
activity no lookahead : 0           
original sp           : 2134446     
sym count             : 0           

Memory used           : 13.00 MB
CPU time              : 59.9437 s

UNSATISFIABLE
